benchmarks_vrp/att48_5.vrp
NAME: att48_5
TYPE: CVRP
COMMENT: (Rinaldi,Yarrow/Araque) - Cluster Nr.5
DIMENSION: 6
CAPACITY: 15
EDGE_WEIGHT_TYPE: ATT
NODE_COORD_TYPE: TWOD_COORDS
NODE_COORD_SECTION: 
2 6823 4674
4 6901 1589
1 5555 1519
5 5906 1472
3 6344 1436
6 6152 2174
DEPOT_SECTION: 
2
-1
DEMAND_SECTION: 
5 1
2 0
4 1
3 1
6 1
1 1
EOF
