benchmarks_vrp/att48_5.tour
NAME: att48_5 solution
TYPE: TOUR
TOUR_SECTION:
2 4 3 5 1 6 -1
-1
EOF